nK = 1282;
nT = 6;
nI = 14;
L = 35;
TT = 319;
np = 1;
nc = 3;
b = [38, 47, 59, 63, 36, 27, 61, 61, 57, 38, 43, 60, 49, 51];
d = [143, 74, 137, 113, 87, 96, 113, 116, 91, 147, 114, 123, 82, 119];
m = [1.1, 2.1, 1.1, 1.6, 2.5, 1.7, 1.5, 1.2, 1.4, 1.4, 1.5, 1.2, 1.7, 2.2];
pt = [0.27, 0.24, 0.33, 0.28, 0.25, 0.32];
st = [16.2, 11.28, 15.51, 12.6, 14.25, 14.4];
arc = {<1, 0, 1, 1, 0, 0, 0, [1, 1, 1, 1, 1, 1]>, <2, 1, 2, 1, 0, 0, 0, [1, 1, 1, 1, 1, 1]>, <3, 2, 3, 1, 0, 0, 0, [1, 1, 1, 1, 1, 1]>, <4, 3, 4, 1, 0, 0, 0, [1, 1, 1, 1, 1, 1]>, <5, 4, 5, 1, 0, 0, 0, [1, 1, 1, 1, 1, 1]>, <6, 5, 6, 1, 0, 0, 0, [1, 1, 1, 1, 1, 1]>, <7, 6, 7, 1, 0, 0, 0, [1, 1, 1, 1, 1, 1]>, <8, 7, 8, 1, 0, 0, 0, [1, 1, 1, 1, 1, 1]>, <9, 8, 9, 1, 0, 0, 0, [1, 1, 1, 1, 1, 1]>, <10, 9, 10, 1, 0, 0, 0, [1, 1, 1, 1, 1, 1]>, <11, 10, 11, 1, 0, 0, 0, [1, 1, 1, 1, 1, 1]>, <12, 11, 12, 1, 0, 0, 0, [1, 1, 1, 1, 1, 1]>, <13, 12, 13, 1, 0, 0, 0, [1, 1, 1, 1, 1, 1]>, <14, 13, 14, 1, 0, 0, 0, [1, 1, 1, 1, 1, 1]>, <15, 14, 15, 1, 0, 0, 0, [1, 1, 1, 1, 1, 1]>, <16, 15, 16, 1, 0, 0, 0, [1, 1, 1, 1, 1, 1]>, <17, 16, 17, 1, 0, 0, 0, [1, 1, 1, 1, 1, 1]>, <18, 17, 18, 1, 0, 0, 0, [1, 1, 1, 1, 1, 1]>, <19, 18, 19, 1, 0, 0, 0, [1, 1, 1, 1, 1, 1]>, <20, 19, 20, 1, 0, 0, 0, [1, 1, 1, 1, 1, 1]>, <21, 20, 21, 1, 0, 0, 0, [1, 1, 1, 1, 1, 1]>, <22, 21, 22, 1, 0, 0, 0, [1, 1, 1, 1, 1, 1]>, <23, 22, 23, 1, 0, 0, 0, [1, 1, 1, 1, 1, 1]>, <24, 23, 24, 1, 0, 0, 0, [1, 1, 1, 1, 1, 1]>, <25, 24, 25, 1, 0, 0, 0, [1, 1, 1, 1, 1, 1]>, <26, 25, 26, 1, 0, 0, 0, [1, 1, 1, 1, 1, 1]>, <27, 26, 27, 1, 0, 0, 0, [1, 1, 1, 1, 1, 1]>, <28, 27, 28, 1, 0, 0, 0, [1, 1, 1, 1, 1, 1]>, <29, 28, 29, 1, 0, 0, 0, [1, 1, 1, 1, 1, 1]>, <30, 29, 30, 1, 0, 0, 0, [1, 1, 1, 1, 1, 1]>, <31, 30, 31, 1, 0, 0, 0, [1, 1, 1, 1, 1, 1]>, <32, 31, 32, 1, 0, 0, 0, [1, 1, 1, 1, 1, 1]>, <33, 32, 33, 1, 0, 0, 0, [1, 1, 1, 1, 1, 1]>, <34, 33, 34, 1, 0, 0, 0, [1, 1, 1, 1, 1, 1]>, <35, 34, 35, 1, 0, 0, 0, [1, 1, 1, 1, 1, 1]>, <36, 4, 17, 13, 1, 0, 1, [1, 0, 0, 1, 1, 1]>, <37, 5, 18, 13, 1, 0, 1, [1, 0, 0, 1, 1, 1]>, <38, 6, 19, 13, 1, 0, 1, [1, 0, 0, 1, 1, 1]>, <39, 13, 26, 13, 1, 0, 1, [1, 0, 0, 1, 1, 1]>, <40, 14, 27, 13, 1, 0, 1, [1, 0, 0, 1, 1, 1]>, <41, 15, 28, 13, 1, 0, 1, [1, 0, 0, 1, 1, 1]>, <42, 18, 31, 13, 1, 0, 1, [1, 0, 0, 1, 1, 1]>, <43, 19, 32, 13, 1, 0, 1, [1, 0, 0, 1, 1, 1]>, <44, 20, 33, 13, 1, 0, 1, [1, 0, 0, 1, 1, 1]>, <45, 21, 34, 13, 1, 0, 1, [1, 0, 0, 1, 1, 1]>, <46, 22, 35, 13, 1, 0, 1, [1, 0, 0, 1, 1, 1]>, <47, 2, 17, 15, 2, 1, 0, [1, 0, 0, 1, 1, 1]>, <48, 3, 18, 15, 2, 1, 0, [1, 0, 0, 1, 1, 1]>, <49, 4, 19, 15, 2, 1, 0, [1, 0, 0, 1, 1, 1]>, <50, 5, 20, 15, 2, 1, 0, [1, 0, 0, 1, 1, 1]>, <51, 6, 21, 15, 2, 1, 0, [1, 0, 0, 1, 1, 1]>, <52, 11, 26, 15, 2, 1, 0, [1, 0, 0, 1, 1, 1]>, <53, 12, 27, 15, 2, 1, 0, [1, 0, 0, 1, 1, 1]>, <54, 13, 28, 15, 2, 1, 0, [1, 0, 0, 1, 1, 1]>, <55, 14, 29, 15, 2, 1, 0, [1, 0, 0, 1, 1, 1]>, <56, 15, 30, 15, 2, 1, 0, [1, 0, 0, 1, 1, 1]>, <57, 16, 31, 15, 2, 1, 0, [1, 0, 0, 1, 1, 1]>, <58, 17, 32, 15, 2, 1, 0, [1, 0, 0, 1, 1, 1]>, <59, 18, 33, 15, 2, 1, 0, [1, 0, 0, 1, 1, 1]>, <60, 19, 34, 15, 2, 1, 0, [1, 0, 0, 1, 1, 1]>, <61, 20, 35, 15, 2, 1, 0, [1, 0, 0, 1, 1, 1]>, <62, 0, 18, 18, 3, 0, 1, [1, 0, 0, 1, 1, 1]>, <63, 1, 19, 18, 3, 0, 1, [1, 0, 0, 1, 1, 1]>, <64, 2, 20, 18, 3, 0, 1, [1, 0, 0, 1, 1, 1]>, <65, 3, 21, 18, 3, 0, 1, [1, 0, 0, 1, 1, 1]>, <66, 4, 22, 18, 3, 0, 1, [1, 0, 0, 1, 1, 1]>, <67, 5, 23, 18, 3, 0, 1, [1, 0, 0, 1, 1, 1]>, <68, 6, 24, 18, 3, 0, 1, [1, 0, 0, 1, 1, 1]>, <69, 8, 26, 18, 3, 0, 1, [1, 0, 0, 1, 1, 1]>, <70, 9, 27, 18, 3, 0, 1, [1, 0, 0, 1, 1, 1]>, <71, 10, 28, 18, 3, 0, 1, [1, 0, 0, 1, 1, 1]>, <72, 11, 29, 18, 3, 0, 1, [1, 0, 0, 1, 1, 1]>, <73, 12, 30, 18, 3, 0, 1, [1, 0, 0, 1, 1, 1]>, <74, 13, 31, 18, 3, 0, 1, [1, 0, 0, 1, 1, 1]>, <75, 14, 32, 18, 3, 0, 1, [1, 0, 0, 1, 1, 1]>, <76, 15, 33, 18, 3, 0, 1, [1, 0, 0, 1, 1, 1]>, <77, 16, 34, 18, 3, 0, 1, [1, 0, 0, 1, 1, 1]>, <78, 17, 35, 18, 3, 0, 1, [1, 0, 0, 1, 1, 1]>, <79, 4, 17, 13, 4, 0, 0, [1, 0, 0, 1, 1, 1]>, <80, 5, 18, 13, 4, 0, 0, [1, 0, 0, 1, 1, 1]>, <81, 6, 19, 13, 4, 0, 0, [1, 0, 0, 1, 1, 1]>, <82, 13, 26, 13, 4, 0, 0, [1, 0, 0, 1, 1, 1]>, <83, 14, 27, 13, 4, 0, 0, [1, 0, 0, 1, 1, 1]>, <84, 15, 28, 13, 4, 0, 0, [1, 0, 0, 1, 1, 1]>, <85, 18, 31, 13, 4, 0, 0, [1, 0, 0, 1, 1, 1]>, <86, 19, 32, 13, 4, 0, 0, [1, 0, 0, 1, 1, 1]>, <87, 20, 33, 13, 4, 0, 0, [1, 0, 0, 1, 1, 1]>, <88, 21, 34, 13, 4, 0, 0, [1, 0, 0, 1, 1, 1]>, <89, 22, 35, 13, 4, 0, 0, [1, 0, 0, 1, 1, 1]>, <90, 3, 17, 14, 5, 0, 0, [1, 0, 0, 1, 1, 1]>, <91, 4, 18, 14, 5, 0, 0, [1, 0, 0, 1, 1, 1]>, <92, 5, 19, 14, 5, 0, 0, [1, 0, 0, 1, 1, 1]>, <93, 6, 20, 14, 5, 0, 0, [1, 0, 0, 1, 1, 1]>, <94, 12, 26, 14, 5, 0, 0, [1, 0, 0, 1, 1, 1]>, <95, 13, 27, 14, 5, 0, 0, [1, 0, 0, 1, 1, 1]>, <96, 14, 28, 14, 5, 0, 0, [1, 0, 0, 1, 1, 1]>, <97, 15, 29, 14, 5, 0, 0, [1, 0, 0, 1, 1, 1]>, <98, 17, 31, 14, 5, 0, 0, [1, 0, 0, 1, 1, 1]>, <99, 18, 32, 14, 5, 0, 0, [1, 0, 0, 1, 1, 1]>, <100, 19, 33, 14, 5, 0, 0, [1, 0, 0, 1, 1, 1]>, <101, 20, 34, 14, 5, 0, 0, [1, 0, 0, 1, 1, 1]>, <102, 21, 35, 14, 5, 0, 0, [1, 0, 0, 1, 1, 1]>, <103, 0, 17, 17, 6, 0, 1, [1, 1, 0, 0, 1, 1]>, <104, 1, 18, 17, 6, 0, 1, [1, 1, 0, 0, 1, 1]>, <105, 2, 19, 17, 6, 0, 1, [1, 1, 0, 0, 1, 1]>, <106, 3, 20, 17, 6, 0, 1, [1, 1, 0, 0, 1, 1]>, <107, 4, 21, 17, 6, 0, 1, [1, 1, 0, 0, 1, 1]>, <108, 5, 22, 17, 6, 0, 1, [1, 1, 0, 0, 1, 1]>, <109, 6, 23, 17, 6, 0, 1, [1, 1, 0, 0, 1, 1]>, <110, 9, 26, 17, 6, 0, 1, [1, 1, 0, 0, 1, 1]>, <111, 10, 27, 17, 6, 0, 1, [1, 1, 0, 0, 1, 1]>, <112, 11, 28, 17, 6, 0, 1, [1, 1, 0, 0, 1, 1]>, <113, 12, 29, 17, 6, 0, 1, [1, 1, 0, 0, 1, 1]>, <114, 13, 30, 17, 6, 0, 1, [1, 1, 0, 0, 1, 1]>, <115, 14, 31, 17, 6, 0, 1, [1, 1, 0, 0, 1, 1]>, <116, 15, 32, 17, 6, 0, 1, [1, 1, 0, 0, 1, 1]>, <117, 16, 33, 17, 6, 0, 1, [1, 1, 0, 0, 1, 1]>, <118, 17, 34, 17, 6, 0, 1, [1, 1, 0, 0, 1, 1]>, <119, 18, 35, 17, 6, 0, 1, [1, 1, 0, 0, 1, 1]>, <120, 3, 17, 14, 7, 0, 1, [1, 0, 0, 1, 1, 1]>, <121, 4, 18, 14, 7, 0, 1, [1, 0, 0, 1, 1, 1]>, <122, 5, 19, 14, 7, 0, 1, [1, 0, 0, 1, 1, 1]>, <123, 6, 20, 14, 7, 0, 1, [1, 0, 0, 1, 1, 1]>, <124, 12, 26, 14, 7, 0, 1, [1, 0, 0, 1, 1, 1]>, <125, 13, 27, 14, 7, 0, 1, [1, 0, 0, 1, 1, 1]>, <126, 14, 28, 14, 7, 0, 1, [1, 0, 0, 1, 1, 1]>, <127, 15, 29, 14, 7, 0, 1, [1, 0, 0, 1, 1, 1]>, <128, 17, 31, 14, 7, 0, 1, [1, 0, 0, 1, 1, 1]>, <129, 18, 32, 14, 7, 0, 1, [1, 0, 0, 1, 1, 1]>, <130, 19, 33, 14, 7, 0, 1, [1, 0, 0, 1, 1, 1]>, <131, 20, 34, 14, 7, 0, 1, [1, 0, 0, 1, 1, 1]>, <132, 21, 35, 14, 7, 0, 1, [1, 0, 0, 1, 1, 1]>, <133, 0, 18, 18, 8, 1, 0, [0, 0, 1, 1, 1, 1]>, <134, 1, 19, 18, 8, 1, 0, [0, 0, 1, 1, 1, 1]>, <135, 2, 20, 18, 8, 1, 0, [0, 0, 1, 1, 1, 1]>, <136, 3, 21, 18, 8, 1, 0, [0, 0, 1, 1, 1, 1]>, <137, 4, 22, 18, 8, 1, 0, [0, 0, 1, 1, 1, 1]>, <138, 5, 23, 18, 8, 1, 0, [0, 0, 1, 1, 1, 1]>, <139, 6, 24, 18, 8, 1, 0, [0, 0, 1, 1, 1, 1]>, <140, 8, 26, 18, 8, 1, 0, [0, 0, 1, 1, 1, 1]>, <141, 9, 27, 18, 8, 1, 0, [0, 0, 1, 1, 1, 1]>, <142, 10, 28, 18, 8, 1, 0, [0, 0, 1, 1, 1, 1]>, <143, 11, 29, 18, 8, 1, 0, [0, 0, 1, 1, 1, 1]>, <144, 12, 30, 18, 8, 1, 0, [0, 0, 1, 1, 1, 1]>, <145, 13, 31, 18, 8, 1, 0, [0, 0, 1, 1, 1, 1]>, <146, 14, 32, 18, 8, 1, 0, [0, 0, 1, 1, 1, 1]>, <147, 15, 33, 18, 8, 1, 0, [0, 0, 1, 1, 1, 1]>, <148, 16, 34, 18, 8, 1, 0, [0, 0, 1, 1, 1, 1]>, <149, 17, 35, 18, 8, 1, 0, [0, 0, 1, 1, 1, 1]>, <150, 4, 17, 13, 9, 0, 1, [0, 1, 1, 1, 1, 0]>, <151, 5, 18, 13, 9, 0, 1, [0, 1, 1, 1, 1, 0]>, <152, 6, 19, 13, 9, 0, 1, [0, 1, 1, 1, 1, 0]>, <153, 13, 26, 13, 9, 0, 1, [0, 1, 1, 1, 1, 0]>, <154, 14, 27, 13, 9, 0, 1, [0, 1, 1, 1, 1, 0]>, <155, 15, 28, 13, 9, 0, 1, [0, 1, 1, 1, 1, 0]>, <156, 18, 31, 13, 9, 0, 1, [0, 1, 1, 1, 1, 0]>, <157, 19, 32, 13, 9, 0, 1, [0, 1, 1, 1, 1, 0]>, <158, 20, 33, 13, 9, 0, 1, [0, 1, 1, 1, 1, 0]>, <159, 21, 34, 13, 9, 0, 1, [0, 1, 1, 1, 1, 0]>, <160, 22, 35, 13, 9, 0, 1, [0, 1, 1, 1, 1, 0]>, <161, 4, 17, 13, 10, 0, 1, [1, 1, 0, 0, 1, 1]>, <162, 5, 18, 13, 10, 0, 1, [1, 1, 0, 0, 1, 1]>, <163, 6, 19, 13, 10, 0, 1, [1, 1, 0, 0, 1, 1]>, <164, 13, 26, 13, 10, 0, 1, [1, 1, 0, 0, 1, 1]>, <165, 14, 27, 13, 10, 0, 1, [1, 1, 0, 0, 1, 1]>, <166, 15, 28, 13, 10, 0, 1, [1, 1, 0, 0, 1, 1]>, <167, 18, 31, 13, 10, 0, 1, [1, 1, 0, 0, 1, 1]>, <168, 19, 32, 13, 10, 0, 1, [1, 1, 0, 0, 1, 1]>, <169, 20, 33, 13, 10, 0, 1, [1, 1, 0, 0, 1, 1]>, <170, 21, 34, 13, 10, 0, 1, [1, 1, 0, 0, 1, 1]>, <171, 22, 35, 13, 10, 0, 1, [1, 1, 0, 0, 1, 1]>, <172, 4, 17, 13, 11, 1, 0, [0, 1, 1, 1, 1, 0]>, <173, 5, 18, 13, 11, 1, 0, [0, 1, 1, 1, 1, 0]>, <174, 6, 19, 13, 11, 1, 0, [0, 1, 1, 1, 1, 0]>, <175, 13, 26, 13, 11, 1, 0, [0, 1, 1, 1, 1, 0]>, <176, 14, 27, 13, 11, 1, 0, [0, 1, 1, 1, 1, 0]>, <177, 15, 28, 13, 11, 1, 0, [0, 1, 1, 1, 1, 0]>, <178, 18, 31, 13, 11, 1, 0, [0, 1, 1, 1, 1, 0]>, <179, 19, 32, 13, 11, 1, 0, [0, 1, 1, 1, 1, 0]>, <180, 20, 33, 13, 11, 1, 0, [0, 1, 1, 1, 1, 0]>, <181, 21, 34, 13, 11, 1, 0, [0, 1, 1, 1, 1, 0]>, <182, 22, 35, 13, 11, 1, 0, [0, 1, 1, 1, 1, 0]>, <183, 3, 17, 14, 12, 0, 1, [1, 1, 1, 1, 0, 0]>, <184, 4, 18, 14, 12, 0, 1, [1, 1, 1, 1, 0, 0]>, <185, 5, 19, 14, 12, 0, 1, [1, 1, 1, 1, 0, 0]>, <186, 6, 20, 14, 12, 0, 1, [1, 1, 1, 1, 0, 0]>, <187, 12, 26, 14, 12, 0, 1, [1, 1, 1, 1, 0, 0]>, <188, 13, 27, 14, 12, 0, 1, [1, 1, 1, 1, 0, 0]>, <189, 14, 28, 14, 12, 0, 1, [1, 1, 1, 1, 0, 0]>, <190, 15, 29, 14, 12, 0, 1, [1, 1, 1, 1, 0, 0]>, <191, 17, 31, 14, 12, 0, 1, [1, 1, 1, 1, 0, 0]>, <192, 18, 32, 14, 12, 0, 1, [1, 1, 1, 1, 0, 0]>, <193, 19, 33, 14, 12, 0, 1, [1, 1, 1, 1, 0, 0]>, <194, 20, 34, 14, 12, 0, 1, [1, 1, 1, 1, 0, 0]>, <195, 21, 35, 14, 12, 0, 1, [1, 1, 1, 1, 0, 0]>, <196, 1, 17, 16, 13, 0, 1, [0, 1, 1, 1, 1, 0]>, <197, 2, 18, 16, 13, 0, 1, [0, 1, 1, 1, 1, 0]>, <198, 3, 19, 16, 13, 0, 1, [0, 1, 1, 1, 1, 0]>, <199, 4, 20, 16, 13, 0, 1, [0, 1, 1, 1, 1, 0]>, <200, 5, 21, 16, 13, 0, 1, [0, 1, 1, 1, 1, 0]>, <201, 6, 22, 16, 13, 0, 1, [0, 1, 1, 1, 1, 0]>, <202, 10, 26, 16, 13, 0, 1, [0, 1, 1, 1, 1, 0]>, <203, 11, 27, 16, 13, 0, 1, [0, 1, 1, 1, 1, 0]>, <204, 12, 28, 16, 13, 0, 1, [0, 1, 1, 1, 1, 0]>, <205, 13, 29, 16, 13, 0, 1, [0, 1, 1, 1, 1, 0]>, <206, 14, 30, 16, 13, 0, 1, [0, 1, 1, 1, 1, 0]>, <207, 15, 31, 16, 13, 0, 1, [0, 1, 1, 1, 1, 0]>, <208, 16, 32, 16, 13, 0, 1, [0, 1, 1, 1, 1, 0]>, <209, 17, 33, 16, 13, 0, 1, [0, 1, 1, 1, 1, 0]>, <210, 18, 34, 16, 13, 0, 1, [0, 1, 1, 1, 1, 0]>, <211, 19, 35, 16, 13, 0, 1, [0, 1, 1, 1, 1, 0]>, <212, 2, 17, 15, 14, 1, 0, [0, 0, 1, 1, 1, 1]>, <213, 3, 18, 15, 14, 1, 0, [0, 0, 1, 1, 1, 1]>, <214, 4, 19, 15, 14, 1, 0, [0, 0, 1, 1, 1, 1]>, <215, 5, 20, 15, 14, 1, 0, [0, 0, 1, 1, 1, 1]>, <216, 6, 21, 15, 14, 1, 0, [0, 0, 1, 1, 1, 1]>, <217, 11, 26, 15, 14, 1, 0, [0, 0, 1, 1, 1, 1]>, <218, 12, 27, 15, 14, 1, 0, [0, 0, 1, 1, 1, 1]>, <219, 13, 28, 15, 14, 1, 0, [0, 0, 1, 1, 1, 1]>, <220, 14, 29, 15, 14, 1, 0, [0, 0, 1, 1, 1, 1]>, <221, 15, 30, 15, 14, 1, 0, [0, 0, 1, 1, 1, 1]>, <222, 16, 31, 15, 14, 1, 0, [0, 0, 1, 1, 1, 1]>, <223, 17, 32, 15, 14, 1, 0, [0, 0, 1, 1, 1, 1]>, <224, 18, 33, 15, 14, 1, 0, [0, 0, 1, 1, 1, 1]>, <225, 19, 34, 15, 14, 1, 0, [0, 0, 1, 1, 1, 1]>, <226, 20, 35, 15, 14, 1, 0, [0, 0, 1, 1, 1, 1]>};
